container_size = [75, 36, 21];
Box = B(1..8);
no_boxes = [31, 34, 23, 17, 30, 17, 27, 21];
box_size =
[|       Length: Width: Height: 
 | B(1):      3,     3,      2
 | B(2):      4,     4,      1
 | B(3):     12,     3,      2
 | B(4):      5,     3,      2
 | B(5):     15,     2,      2
 | B(6):      5,     5,      2
 | B(7):      8,     4,      3
 | B(8):      2,     2,      2
 |];
